(declare-fun bvlambda_1_ ()Bool         )
(declare-fun bvlambda_2_ ()Bool         )
(declare-fun a75 () (Array (_ BitVec 1) (_ BitVec 4)))
(declare-fun a78 () (Array (_ BitVec 11) (_ BitVec 6)))
(assert
(let (($e18 (_ bv0 2)))
(let (($e32 (_ bv0 4)))
(let (($e38 (_ bv0    11)))
(let (($e83 (select a78        $e38 )))
(let (($e92 (store a75 bvlambda_1_ $e32 )))
(let (($e93 (select $e92 true)))
(let (($e452 (store a75 false $e93)))
(let (($e453 (select $e452 bvlambda_2_)))
(let (($e454 (concat $e18 $e453)))
(let (($e455              $e454 ))
                  (bvult $e83  $e455)
                                                                                                                                                                                                                                                                                                                                                                                                                                                                                                                                                                                                                                                                        ))))                                                                                                                                                                                                                                                                                                                                                                      ))        )                              )     )             )                 )
